
 102   30
  10   10   10   10   10   10   10   10   10   10   10   10   10   10   10   10   10   10   10   10   10   10   10   10   10   10   10   10   10   10

   0   0   0   0   0   0   0   0   0   0   0   0   0   0   0   0   0   0   0   0   0   0   0   0   0   0   0   0   0   0   0  32 2 3 4 5 6 7 8 9 10 11 12 13 14 15 16 17 18 19 20 21 22 23 24 26 27 28 30 31 32 33 34 70 
   2   1   0   0   0   0   0   0   0   0   0   1   1   1   0   0   0   0   0   0   0   0   0   0   1   0   0   0   0   0   0  18 100 98 97 79 68 67 66 63 60 57 56 54 52 50 48 41 39 35 
   2   0   0   2   0   1   0   0   0   0   0   0   0   0   0   0   0   0   0   0   0   0   0   0   0   0   0   0   0   1   1  18 101 100 99 80 79 78 77 69 67 63 61 59 58 57 54 40 36 35 
   6   0   0   0   0   0   1   0   0   0   0   0   0   0   0   0   0   0   0   0   0   1   1   1   0   0   0   0   0   6  10  16 97 79 77 75 66 64 61 55 54 53 52 50 47 45 42 39 
  10   0   0   0   0   0   0   0   0   0   0   0   0   4   0   0   2   0   0   0   0   0   0   0   0   0   0   0   0   0   0  11 101 100 96 80 69 68 62 61 59 47 25 
   7   0   0   6   2   0   0   0   0   0   0   0   0   0   0   0   0   0   0   0   0   0   0   0   0   2   0   1   0   0   0  21 101 100 99 97 78 77 73 69 68 67 66 63 62 61 54 52 50 49 48 47 46 
   2   0   0   0   0   0   0   0   0   0   0   0   0   0   1   0   5   0   1   0   0   0   0   0   0   0   0   0   0   0   0  16 100 99 98 94 79 77 69 67 64 63 61 59 54 52 36 35 
   9   0   1   0   0   0   0   0   0   0   0   0   0   0   6   0   0   0   0   0   0   0   0   0   0   0   0   0   0   0   0  13 101 97 94 80 62 60 57 52 50 47 45 42 39 
   7   0   0   0   0   0   7   3   0   1   0   0   0   0   0   0   8   0   0   0   1   0   0   0   0   4   0   0   0   0   3  23 101 100 99 98 97 96 87 79 75 69 68 67 66 64 63 62 61 60 55 54 53 49 48 
   5   0   7   0   0   0   6   0   0   0   0   0   0   0   0   0   0   1   0   0   6   0   0   0   0   7   1   0   0   0   0  18 97 79 78 77 76 75 69 67 65 63 61 57 55 54 50 48 40 37 
   9   0   0   0   0   0   0   0   0   4   0   0   0   6   0   0   0   0   0   0   0   0   0   0   0   0   0   0   0   0   0  15 95 91 79 78 75 69 67 63 57 56 55 54 47 44 41 
   9   0   0   0   0   0   0   0   0   0   0   0   0   0   5   0   0   0   0   0   0   6   0   0   0   0   7   0   0   0   0  15 97 96 75 68 67 64 63 62 60 54 52 51 50 41 38 
   6   4   0   0   0   0   0   0   0   0   0   0   9   5   0   0   0   0   0   0   0   0   0   0   0   0   0   0   0   8   0  26 100 99 98 97 96 95 93 91 80 79 77 76 75 74 73 72 69 68 67 66 65 63 61 55 54 53 
   4   0   0  10   0   0   0   0   0   0   0   0   0   0   0   0   0   2   0   0   0   6   0   0   0   0   0   0   0   0   0   8 100 98 96 79 65 62 53 25 
   5   0   0   6   0   2   0   0   0   0   0   0   0   0   0   0   0   0   0   0   0   0  10   0   0   0   0   5   0   0   0  16 99 98 97 96 95 78 77 75 69 68 65 62 54 52 42 41 
   8   0   7   0   0   0   0   0   1   9   0   0   0   0   0   0   0   0   8   0   0   0   0   0   0  10   4   2   0   0   0  20 100 99 97 96 95 79 78 77 76 75 73 71 69 67 66 62 55 49 48 47 
  10   9   0   0   0   0   0   0   0   0   0   0   0   0   0   0   0   0   0   4   0   0   0   0   0   0   2   0   0   4   0  17 98 97 96 95 78 77 75 73 71 67 65 61 55 53 49 48 43 
   8   0   0   0   0   0   0   0   0   0   0   0   0   8   0   1   0   0  10   0   0   0   0   0   0   5   0   0   0   0   0  17 100 99 97 93 77 76 75 69 66 63 62 61 57 54 53 50 45 
   3   0   0   0   0   7   0   0   0   0   0   0   0   0   0   0   0   0   0   0   0   0   0   0   0   7   0   0   6   0   0  16 101 100 98 96 94 92 79 75 73 67 66 65 52 49 45 39 
   4   0   5   0   0   4   0   8   0   0   0   0   0   0   5   0   0   0   0   0   6   0   0   0   9   0   0   0   0   0   0   8 100 99 76 75 74 55 50 29 
  10   0   0   0   0   0   0   0   0   0   0   0   0   0   0   0   5   0   0   0   0   0   0   7   0   0   0   0   0   0   0  19 99 98 96 95 93 91 79 77 76 75 74 71 69 66 65 62 56 54 41 
   6   0   0   0   0   0   0   0   0   0   0   0   0   0   0   0   8   0   0   0   0   0   0   0   0   0   0   0   0   5   0  12 98 97 94 80 79 77 76 68 67 57 39 35 
   4   0   7   9   0   0   0   0   0   0   4   0   0   0   6   0   0   0   0   0   7   0   0   0   0   0   0   0   0   0   0  12 101 96 94 78 75 73 60 59 50 48 47 44 
   2   0   0   0   0   7   6   6   0   0   0   0   0   0   0   4   0   0   0   0   0   0   0   0   6   0   0   0   0   0   0  15 100 95 91 79 78 77 74 73 67 65 63 62 61 54 36 
   5   0   0   0   0   7   0   0   6   0   3   0   0   0   0   9   0   0   0   0   0   0   0   0   0   0   0   0   0   0   0  13 99 97 95 94 90 77 75 73 66 63 55 52 42 
   7   0   0   0   0   0   6   7   0   0   0   0   0   0   0   0   0   0   3   0   0   0   0   0   8   0   0   0   0   0   5  14 97 96 90 75 73 71 68 67 65 62 59 53 52 49 
   4   0   0   3   0   0   0   0   6   0   0   0   7   0   0   0   0   0   5   0   0   0   0   0   0   8   0   0   0   0   0  15 99 98 95 93 84 77 74 72 71 69 68 65 64 61 53 
   7   0   0   0   9   0   8   0   0   0   0   0   0   0   0   0   0   0   0   0   0   0   0   8   0   0   0   0   0   0   0  15 97 95 80 79 78 76 75 74 71 68 67 66 65 62 48 
   8   0   0   7   0   0   0   0   0   4   0   0   0   0   0   0   0   0   0   0   0   0   5   0   0   0   0   4   0   0   0  10 98 97 96 95 93 71 66 65 60 41 
   4   0   0   0   0   0   0   0   0   0   0   0   0   0   0   0   0   0   0   0   0   0   0   0   0   0   0   0   0   0   0  10 95 75 73 71 68 67 53 49 48 47 
   7   0  10   0   0   0   0   0   0   0   0   0   0   3   0   0   0   0   0   0   0   0   6   0   0   0   0   2   3   0   0  18 101 100 97 96 95 94 93 92 91 90 89 75 73 66 65 63 62 54 
   7   0   0   0   0   0   0   0   0   0   0   0   0   0   0   0   4   0   7   0   0   0   0   0   0   0   0   0   0   0   0  13 101 100 94 78 76 74 73 72 71 69 65 59 48 
   3   0   0   0   0   0   0   0   0   0   0   0   0   8   0   0   0   0   8   0   0   0   0   0   0   0   0   0   0   0   0  13 100 96 94 93 92 78 75 73 68 67 65 63 50 
   6   0   0   0   0   7   0   0   0   0   0   0   0   0   6   6   0   0   0   3   0   0   0   0   0   0   0   0   0   0   0  15 100 98 95 94 90 77 75 73 72 71 67 66 65 54 52 
  10   0   0   0   0   0   0   0   0   0   0   0   0  10   0   0   6   0   0   0   0   0   0   0   0   0   0   0   0   0   0  13 95 92 91 90 89 88 83 82 75 74 72 65 62 
   6   0   0   0   0   0   0   0   0   0   0   0   0   0   8   0   0   8   6   0   0   0   0   0   0   0   0   0   0   0   0  12 97 96 93 90 89 88 87 84 75 71 68 66 
   7  10   0   0   0   0   0   0   0   9   0   0   0   0   9   0   0   0   0   0   0   0   0   0   0   0   0   9   0   0   0  12 95 91 90 89 88 87 84 80 72 71 66 53 
   8   0   0   6   0   0   0   0   0   0   0   0   0   0   0   0   0   0   0   0   0   0   0   6   0   0   0   0   0   0   0   9 101 95 93 91 77 72 71 65 53 
  10   0   0   0  10  10   0   0   0   0   0   3   0   0   0   0   0   6   8   0   0   0   7   0   7   0   0   0   0   0   0  12 99 95 90 88 87 86 85 84 82 78 74 69 
   9   7   0   0   0   0   0   0   0   0   4   0   0   9   0   0   0   0   0   0   0   0   4   0   5   0   0   0   0   0   7  10 98 90 89 88 86 85 84 72 71 53 
   7   0   0   0   0   2   0   4   0   0   0   0   0   0   0   0   0   0   0   0   0   0   0   0   0   0   0   0   0   0  10   6 86 84 73 72 61 53 
   8   0   0   4   0   0   0   5   0   0   0   6   0   0   0   0   0   0   0   0   0   0   0   0   8   0   0   0   6   0   0   5 92 87 86 67 49 
   4   5   0   0   0   0   0   0   0   0   0   5   0   0   0   0   0   0   0   0   0   9   0   0   0   0   0   0   0   0   0   9 99 90 89 88 87 86 76 66 54 
   5   0   0   0   0   0   0   0   0   0   7   0   0   0   0   0   0   0   0   0   0   4   5   5   0   0   0   0   0   0   0  10 99 97 93 90 88 87 84 74 71 66 
   6   7   4   0   4   0   0   0   0   0   0   0   0   0   0   0   0   0   0   0   0   0   0   0   0   0   0   0   0   0   0   7 87 85 84 81 78 71 68 
   7   6   6   0   0   0   0   7   0   0   0   0  10   0   0   0   0   0   0   7   0   0   0   0   0   1   0   0   0   8   7   9 96 94 89 88 87 86 85 81 71 
   5   5   7   0   0   0   0   0   0   0   0   5   0   0   0   0   0   7   0   0   0   0   0   0   0   0   0   0   0   0   0   7 98 93 85 84 82 74 65 
   6   0   0   0   0   0   0   0   0   0   0   0   0   0   0   0   0   0   0   0   0   0   0   0   0   0   0   0   5   0   5   9 93 92 91 90 88 85 83 82 81 
   3   6   0   0   0   0   0   0   8   7   0   0   0   0   0   0   0   0   0   0   0   0   0   0   0   0   0   0   0   0   0   8 93 91 89 84 83 82 74 72 
   7   0   0   0   0   0   7   0   0   0   0  10   0   0   0   0   0   6   0   5   9   0   0   9   0   0   0   0   0   0   0   7 95 91 90 87 83 72 71 
   6   0   0   0   8   0   0   0   0   4   0   0   0   0   7   0   0   8   0   0   0   9   0   0   0   0   0   0   0   0   0   7 91 87 86 85 84 83 74 
   5   0   0   0   0   0   0   0   0   0   0   0   0   0   0   0   0   0   0   0   0   0   0   0   0   0   0   0   0   0   0   5 89 87 86 81 76 
  10   0   0   0   0   0  10   0   0   0   5   0   5   0   0   0   0   0   0   0   0   0   0   0   0   0   0   5   0   0   0   5 94 92 83 82 81 
   6   0   0   0   0   0   0   0   0   0   0   0   0   0   4   0   5   0   5   0   0   5   0   0   0   0   0   0   0   0   7   5 85 84 83 82 81 
   7   3   0   0   7   0   0   5   0   0   0   0   0   0   0   6   8   0   0   0   0   0   0   0   0   0   0   7   0   0   0   5 86 85 84 82 81 
   2   8   0   0   0   0   0   0   0   6   0   0   9   0   0   0  10   0   0   0   0   7   0   0   0   0   0   0   0   0   0   5 92 87 85 83 82 
   3   7   5   0   4   0   0   0   0   0   0   0   4   0   0   0   6   5   0   0   0   8   0   0   0   0   7   0   0   0   0   4 96 85 81 73 
   4   0   6   0   6   0   0   0   0   0   0   0   0   5   0   0   0   0   0   0   0   0   0   0   9   0   0   7   0   0   0   4 83 82 81 76 
   9   0   0   0   0   0   0   0   8   7   0   0   5   0   7   0   0   0   0   0   0   0   0   4   0   0   0   0   0   0   0   4 86 83 82 81 
  10   0   0   0   0   0   0   0   0   0   0   0   0   0   6   0   0   5   0   0   0   8   0   5   0   0   0   0   0   0   9   3 91 85 77 
  10   0   0   0   0   0   0   0   0   0   0   0   0   0   0   0   0   0   7   0   0   0   0   0   0   0   0   8   0   0   7   3 90 89 85 
   4   0   0   7   7   0   0   0   0   0   0   0   0   0   0   0   3   0   0   0   0   0   0   0   0   0   0   0   0   0   0   3 86 84 81 
   6   0   0   6   0   0   0   0   0   0   0   0   0   0   0   0   0   0   0   0   0   0   0   0   7   0   0   0   0   0   0   2 81 71 
   8   0   0   0   0   0   0   0   0   8   0   0   5   0   0   0   0   0   0   0   0   0   0   0   0   0   0   0   0   8   0   2 91 73 
  10   0   0   4   0   0   4   0   0   0   0   0   0   0   0   0   0   0   0   0   0   5   0   0   0   0   7   0   0   0   2   2 87 86 
   6   0   0   0   0   0   0   0   6   0   0   0   0   0   0   0   0   0   0   0   0   0   0   0   0   0   0   0   0   0   0   2 83 81 
   3   0   0   8   0   0   0   0   0   0   0   0   0   0   0   0   0   0   0   0  10   0   0   0   0   0   0   0  10   0   0   2 88 82 
  10   0   0   0   8   0   3   0   9   0   0   0   0   0   0   0   0   0   8   0   0   0   0   0   0   0   0   0   0   0   0   2 86 83 
   5   0   0   0   0   0   6   6   0   0   0   0   0   0   0   0   3   0   0   0   0   0   0   0   0   0   0   0   0   0   0   2 83 81 
   7   0   0   0   0   0   0   0   0   0   0   3   6   0   0   0   0   8   0   0   0   0   0   0   0   0   0   0   0   0   0   1 76 
   5   0   0   0   6   0   5   0   7   0   0   9   0   0   0   0   0   0   0  10   3   0   0   0   0   0   0   0   0   0   0   1 82 
   8   0   0   0   0   0   0   0   0   0   0   0   0   0   0   6   0   0   5   9   0   0   0   0   0   7   0   9   0   0   5   1 81 
   9   0   6   0   0   0   6   0   0   0   0   0   0   0   0   0   0   0   0   0   0   0   6   0   0   0   0  10   4   0   0   1 88 
   1   0   0   0   0   0   0   0   0   0   0   0   5   0   0   8   0   0   0   0   0   8   7   0   0   0   0   4   0   0   0   1 81 
   9   0   0   7   0   0   0   8   3   5   0   0   0   0   0   0   0   0   0   0   0   0  10   0   0   0   0   0   0   0   0   1 85 
  10   0   0   0   0   0   0   0   0   0   0   0   0   7   0   0   0  10   5   0   8   0   0   0   0   0   0   0   0   0   8   1 84 
   8   0   0   0   0   0   0   5   0   0   0   0   0   0   0   7   0   0   0   0   0   0   0   0   0   0   0   7   0   0   0   1 81 
   3   0   0   0   0   0   0   0   0   0   0   5   0   0   0   0   0   0   0   0   0   0   0   0   0   0   0   0   0   0   0   1 89 
   3   0   0   0   0   0   5   0   0   0   0   0   0   0   0   4   7   0   0   0   0   0   0   0   5   0   0   7   0   0   0   1 81 
   1   0   0   0   0   0   0   0   0   0   0   0   0   0   0   0   9   0   0   0   0   0   6   0   0   0   6   4   0   0   0   1 82 
   7   0   0   0   0   0   0   0   0   0   0   0   0   0   0   0   0   0   0   0   0   0   0   0   0   0   0   9   0   0   0   1 102
   8   0   0   0   0   0   8   0   0   6   0   0   0   0   0   0   0   8   0   0   0   0   0   0   5   0   0   0   5   0   7   1 102
   3   0   4   0   0   0   0   0   0   8   0   0   0   0   0   0   0   0   0   0   0   0   0   0   4   0   8   0   0   0   0   1 102
  10   0   0   5   0   0   0   0   0   0   0   0   0   0   0   0   0   0   0   0   0   2   0   0   0   0   0   0  10   0   0   1 102
   3   6   0   0   4   0   0   0   0   0   0   0   0   0   0   6   0   0   0   0   0   0   6   0   0   0   0   0   0   0   0   1 102
  10   0   0   0   3   0   0   0   0   0   0   0   0   0   0   8   0   0   0   0   4   0   6   0   0   0  10   0   0   0   0   1 102
   2   0   0   0   0   0   0   0   0   0   0   0   0   0   0   0   0   0   0   0   0   0   0   0   4   0   0   0   0   8   0   1 102
   8   0   0   0   0   0   0   0   0   0   0   9   0   4   0   9   0   0   0   5   0   0   5   0   0   0   4   0   0   0   0   1 102
  10   0   0   0   0   0   0   0   0   0   0   0   6   0   0   0   6   0   5   0   0   0   0   0   7   7   0   0   0   0   0   1 102
   6   0   0   0   0   0   0   0   0   0   0   0   0   0   0   0   0   0   6   0   0   0   0   0   0   0   0   0   0   0   0   1 102
   7   0   0   0   0  10   0   0   0   0   0   8   0   0   0   4   0   0   6   0   0   0   0   0   0   0   0   0   0   6   0   1 102
   5   0   0   0   0   0   0   0   0   0  10   0   0   5   0   0   0   0   0   0   0   0   0   9   0   0   0   0   0   0   0   1 102
   6   0   0   2   0   0   5   0   0   0   0   5   0   0   0   0   0   0   0   0   0   0   0   0   0   0   0   0   0   0   0   1 102
   7   0   0   0   0   0   0   0   0   0   0   0   0   0   0   0   7   0   5   0   0   0   0   0   0   0   0   0   0   0   0   1 102
   7   0   0   0   0   0   9   0   0   0   0   0   0   0   0   0   0   0   0   0   0   0   0   0   5   0   0   0   0   0   0   1 102
   3   0   8   0   0   0   0   0   0   0   0   0   0   0   6   0   0   0   0   0   0   0   0   0   0   0   0   0   0   0   0   1 102
   4   0   7   0   0   0   0  10   0   0   0  10   0   0   0   0   0   4   0   0   0   0   0   0   0   0   0   8   0   0   3   1 102
   5   0   0  10   0   0   0   4   0   0   0   0   0   0   0   0   0   0   0   5   0   0   0   0   0   8   0   0   5   0   0   1 102
  10   0   0   0   0   9   0   0   0   0   0   0   0   0   0   0   0   0   0   6   0   0   7   0   0   0  10   0   0   0   0   1 102
  10   0   0   0   0   0   0   0   0   0   0   0   0   0   0   0   6   0   0   0   0   0   0   0   0   0   0   0   0   0   0   1 102
   1   0   0   0   0   0   0   0   0   0   9   5   0   9   8   0   0   0   0   0   0   0   5   0   0   0   0   0   0   0   0   1 102
   0   0   0   0   0   0   0   0   0   0   0   0   0   0   0   0   0   0   0   0   0   0   0   0   0   0   0   0   0   0   0   0 
